&CONTROL
    calculation   = "vc-relax"
    prefix = 'diamond',
    pseudo_dir    = '/opt/qe-6.8/pseudo/',
/

&SYSTEM
    a                         =  9.30356e+00
    c                         =  1.78195e+01
    degauss                   =  1.00000e-02
    ecutrho                   =  3.25000e+02
    ecutwfc                   =  3.50000e+01
    ibrav                     = 6
    nat                       = 144
    nspin                     = 2
    ntyp                      = 4
    occupations               = "smearing"
    smearing                  = "gaussian"
    starting_magnetization(1) =  2.00000e-01
    starting_magnetization(2) =  0.00000e+00
/

&ELECTRONS
    conv_thr         =  1.00000e-06
    electron_maxstep = 200
    mixing_beta      =  4.00000e-01
    startingpot      = "atomic"
    startingwfc      = "atomic+random"
/

&IONS
    ion_dynamics = "bfgs"
/

&CELL
/

K_POINTS {gamma}

ATOMIC_SPECIES
Ti     47.86700  Ti.pbe-sp-van_ak.UPF
O      15.99940  O.pbe-rrkjus.UPF
Nb     92.90638  Nb.pbe-nsp-van.UPF
Y      88.90585  Y.pbe-nsp-van.UPF

ATOMIC_POSITIONS {angstrom}
Ti      2.325892   2.325892   1.484957
Ti      0.000000   0.000000   0.000000
O       3.233404   3.233404   0.000000
O       0.907512   3.744272   1.484957
O       1.418380   1.418380   0.000000
O       3.744272   0.907512   1.484957
Ti      2.325892   2.325892   4.454867
Ti      0.000000   0.000000   2.969910
O       3.233404   3.233404   2.969910
O       0.907512   3.744272   4.454867
O       1.418380   1.418380   2.969910
O       3.744272   0.907512   4.454867
Nb      2.325892   2.325892   7.424777
Ti      0.000000   0.000000   5.939820
O       3.233404   3.233404   5.939820
O       0.907512   3.744272   7.424777
O       1.418380   1.418380   5.939820
O       3.744272   0.907512   7.424777
Ti      2.325892   2.325892  10.394687
Ti      0.000000   0.000000   8.909730
O       3.233404   3.233404   8.909730
O       0.907512   3.744272  10.394687
O       1.418380   1.418380   8.909730
O       3.744272   0.907512  10.394687
Ti      2.325892   2.325892  13.364597
Ti      0.000000   0.000000  11.879640
O       3.233404   3.233404  11.879640
O       0.907512   3.744272  13.364597
O       1.418380   1.418380  11.879640
O       3.744272   0.907512  13.364597
Ti      2.325892   2.325892  16.334507
Ti      0.000000   0.000000  14.849550
O       3.233404   3.233404  14.849550
O       0.907512   3.744272  16.334507
O       1.418380   1.418380  14.849550
O       3.744272   0.907512  16.334507
Ti      2.325892   6.977672   1.484957
Ti      0.000000   4.651780   0.000000
O       3.233404   7.885184   0.000000
O       0.907512   8.396052   1.484957
O       1.418380   6.070160   0.000000
O       3.744272   5.559292   1.484957
Ti      2.325892   6.977672   4.454867
Ti      0.000000   4.651780   2.969910
O       3.233404   7.885184   2.969910
O       0.907512   8.396052   4.454867
O       1.418380   6.070160   2.969910
O       3.744272   5.559292   4.454867
Ti      2.325892   6.977672   7.424777
Ti      0.000000   4.651780   5.939820
O       3.233404   7.885184   5.939820
O       0.907512   8.396052   7.424777
O       1.418380   6.070160   5.939820
O       3.744272   5.559292   7.424777
Ti      2.325892   6.977672  10.394687
Ti      0.000000   4.651780   8.909730
O       3.233404   7.885184   8.909730
O       0.907512   8.396052  10.394687
O       1.418380   6.070160   8.909730
O       3.744272   5.559292  10.394687
Ti      2.325892   6.977672  13.364597
Ti      0.000000   4.651780  11.879640
O       3.233404   7.885184  11.879640
O       0.907512   8.396052  13.364597
O       1.418380   6.070160  11.879640
O       3.744272   5.559292  13.364597
Ti      2.325892   6.977672  16.334507
Ti      0.000000   4.651780  14.849550
O       3.233404   7.885184  14.849550
O       0.907512   8.396052  16.334507
O       1.418380   6.070160  14.849550
O       3.744272   5.559292  16.334507
Ti      6.977672   2.325892   1.484957
Ti      4.651780   0.000000   0.000000
O       7.885184   3.233404   0.000000
O       5.559292   3.744272   1.484957
O       6.070160   1.418380   0.000000
O       8.396052   0.907512   1.484957
Ti      6.977672   2.325892   4.454867
Ti      4.651780   0.000000   2.969910
O       7.885184   3.233404   2.969910
O       5.559292   3.744272   4.454867
O       6.070160   1.418380   2.969910
O       8.396052   0.907512   4.454867
Ti      6.977672   2.325892   7.424777
Ti      4.651780   0.000000   5.939820
O       7.885184   3.233404   5.939820
O       5.559292   3.744272   7.424777
O       6.070160   1.418380   5.939820
O       8.396052   0.907512   7.424777
Ti      6.977672   2.325892  10.394687
Ti      4.651780   0.000000   8.909730
O       7.885184   3.233404   8.909730
O       5.559292   3.744272  10.394687
O       6.070160   1.418380   8.909730
O       8.396052   0.907512  10.394687
Ti      6.977672   2.325892  13.364597
Ti      4.651780   0.000000  11.879640
O       7.885184   3.233404  11.879640
O       5.559292   3.744272  13.364597
O       6.070160   1.418380  11.879640
O       8.396052   0.907512  13.364597
Ti      6.977672   2.325892  16.334507
Ti      4.651780   0.000000  14.849550
O       7.885184   3.233404  14.849550
O       5.559292   3.744272  16.334507
O       6.070160   1.418380  14.849550
O       8.396052   0.907512  16.334507
Ti      6.977672   6.977672   1.484957
Ti      4.651780   4.651780   0.000000
O       7.885184   7.885184   0.000000
O       5.559292   8.396052   1.484957
O       6.070160   6.070160   0.000000
O       8.396052   5.559292   1.484957
Ti      6.977672   6.977672   4.454867
Nb      4.651780   4.651780   2.969910
O       7.885184   7.885184   2.969910
O       5.559292   8.396052   4.454867
O       6.070160   6.070160   2.969910
O       8.396052   5.559292   4.454867
Ti      6.977672   6.977672   7.424777
Y       4.651780   4.651780   5.939820
O       7.885184   7.885184   5.939820
O       5.559292   8.396052   7.424777
O       6.070160   6.070160   5.939820
O       8.396052   5.559292   7.424777
Ti      6.977672   6.977672  10.394687
Ti      4.651780   4.651780   8.909730
O       7.885184   7.885184   8.909730
O       5.559292   8.396052  10.394687
O       6.070160   6.070160   8.909730
O       8.396052   5.559292  10.394687
Ti      6.977672   6.977672  13.364597
Ti      4.651780   4.651780  11.879640
O       7.885184   7.885184  11.879640
O       5.559292   8.396052  13.364597
O       6.070160   6.070160  11.879640
O       8.396052   5.559292  13.364597
Ti      6.977672   6.977672  16.334507
Ti      4.651780   4.651780  14.849550
O       7.885184   7.885184  14.849550
O       5.559292   8.396052  16.334507
O       6.070160   6.070160  14.849550
O       8.396052   5.559292  16.334507

